c nIsolatedPIs 6
c maxPI 26
p cnf 156 391
c gate 27 -13 26 0
-13 -27 0
26 -27 0
13 -26 27 0
c gate 28 12 -25 0
12 -28 0
-25 -28 0
-12 25 28 0
c gate 29 -12 25 0
-12 -29 0
25 -29 0
12 -25 29 0
c gate 30 11 -24 0
11 -30 0
-24 -30 0
-11 24 30 0
c gate 31 10 -23 0
10 -31 0
-23 -31 0
-10 23 31 0
c gate 32 9 -22 0
9 -32 0
-22 -32 0
-9 22 32 0
c gate 33 8 -21 0
8 -33 0
-21 -33 0
-8 21 33 0
c gate 34 -8 21 0
-8 -34 0
21 -34 0
8 -21 34 0
c gate 35 7 -20 0
7 -35 0
-20 -35 0
-7 20 35 0
c gate 36 -7 20 0
-7 -36 0
20 -36 0
7 -20 36 0
c gate 37 5 18 0
5 -37 0
18 -37 0
-5 -18 37 0
c gate 38 -5 -18 0
-5 -38 0
-18 -38 0
5 18 38 0
c gate 39 -37 -38 0
-37 -39 0
-38 -39 0
37 38 39 0
c gate 40 14 -39 0
14 -40 0
-39 -40 0
-14 39 40 0
c gate 41 -1 40 0
-1 -41 0
40 -41 0
1 -40 41 0
c gate 42 -5 18 0
-5 -42 0
18 -42 0
5 -18 42 0
c gate 43 -6 19 0
-6 -43 0
19 -43 0
6 -19 43 0
c gate 44 -42 -43 0
-42 -44 0
-43 -44 0
42 43 44 0
c gate 45 -41 44 0
-41 -45 0
44 -45 0
41 -44 45 0
c gate 46 6 -19 0
6 -46 0
-19 -46 0
-6 19 46 0
c gate 47 -45 -46 0
-45 -47 0
-46 -47 0
45 46 47 0
c gate 48 -36 -47 0
-36 -48 0
-47 -48 0
36 47 48 0
c gate 49 -35 -48 0
-35 -49 0
-48 -49 0
35 48 49 0
c gate 50 -34 -49 0
-34 -50 0
-49 -50 0
34 49 50 0
c gate 51 -33 -50 0
-33 -51 0
-50 -51 0
33 50 51 0
c gate 52 -32 51 0
-32 -52 0
51 -52 0
32 -51 52 0
c gate 53 -9 22 0
-9 -53 0
22 -53 0
9 -22 53 0
c gate 54 -10 23 0
-10 -54 0
23 -54 0
10 -23 54 0
c gate 55 -53 -54 0
-53 -55 0
-54 -55 0
53 54 55 0
c gate 56 -52 55 0
-52 -56 0
55 -56 0
52 -55 56 0
c gate 57 -31 -56 0
-31 -57 0
-56 -57 0
31 56 57 0
c gate 58 -30 57 0
-30 -58 0
57 -58 0
30 -57 58 0
c gate 59 -29 -58 0
-29 -59 0
-58 -59 0
29 58 59 0
c gate 60 -11 24 0
-11 -60 0
24 -60 0
11 -24 60 0
c gate 61 59 -60 0
59 -61 0
-60 -61 0
-59 60 61 0
c gate 62 -28 -61 0
-28 -62 0
-61 -62 0
28 61 62 0
c gate 63 -27 -62 0
-27 -63 0
-62 -63 0
27 62 63 0
c gate 64 13 -26 0
13 -64 0
-26 -64 0
-13 26 64 0
c gate 65 -2 -15 0
-2 -65 0
-15 -65 0
2 15 65 0
c gate 66 2 15 0
2 -66 0
15 -66 0
-2 -15 66 0
c gate 67 -65 -66 0
-65 -67 0
-66 -67 0
65 66 67 0
c gate 68 -28 -30 0
-28 -68 0
-30 -68 0
28 30 68 0
c gate 69 -27 -68 0
-27 -69 0
-68 -69 0
27 68 69 0
c gate 70 67 -69 0
67 -70 0
-69 -70 0
-67 69 70 0
c gate 71 -64 -70 0
-64 -71 0
-70 -71 0
64 70 71 0
c gate 72 -63 71 0
-63 -72 0
71 -72 0
63 -71 72 0
c gate 73 -30 -59 0
-30 -73 0
-59 -73 0
30 59 73 0
c gate 74 -11 -24 0
-11 -74 0
-24 -74 0
11 24 74 0
c gate 75 11 24 0
11 -75 0
24 -75 0
-11 -24 75 0
c gate 76 -74 -75 0
-74 -76 0
-75 -76 0
74 75 76 0
c gate 77 -29 76 0
-29 -77 0
76 -77 0
29 -76 77 0
c gate 78 -28 -77 0
-28 -78 0
-77 -78 0
28 77 78 0
c gate 79 -73 78 0
-73 -79 0
78 -79 0
73 -78 79 0
c gate 80 3 16 0
3 -80 0
16 -80 0
-3 -16 80 0
c gate 81 -3 -16 0
-3 -81 0
-16 -81 0
3 16 81 0
c gate 82 -80 -81 0
-80 -82 0
-81 -82 0
80 81 82 0
c gate 83 12 25 0
12 -83 0
25 -83 0
-12 -25 83 0
c gate 84 9 22 0
9 -84 0
22 -84 0
-9 -22 84 0
c gate 85 -8 -21 0
-8 -85 0
-21 -85 0
8 21 85 0
c gate 86 7 20 0
7 -86 0
20 -86 0
-7 -20 86 0
c gate 87 8 21 0
8 -87 0
21 -87 0
-8 -21 87 0
c gate 88 -86 -87 0
-86 -88 0
-87 -88 0
86 87 88 0
c gate 89 6 19 0
6 -89 0
19 -89 0
-6 -19 89 0
c gate 90 1 14 0
1 -90 0
14 -90 0
-1 -14 90 0
c gate 91 -37 -90 0
-37 -91 0
-90 -91 0
37 90 91 0
c gate 92 -89 91 0
-89 -92 0
91 -92 0
89 -91 92 0
c gate 93 -7 -20 0
-7 -93 0
-20 -93 0
7 20 93 0
c gate 94 -6 -19 0
-6 -94 0
-19 -94 0
6 19 94 0
c gate 95 -93 -94 0
-93 -95 0
-94 -95 0
93 94 95 0
c gate 96 -92 95 0
-92 -96 0
95 -96 0
92 -95 96 0
c gate 97 88 -96 0
88 -97 0
-96 -97 0
-88 96 97 0
c gate 98 -85 -97 0
-85 -98 0
-97 -98 0
85 97 98 0
c gate 99 38 -89 0
38 -99 0
-89 -99 0
-38 89 99 0
c gate 100 88 99 0
88 -100 0
99 -100 0
-88 -99 100 0
c gate 101 98 -100 0
98 -101 0
-100 -101 0
-98 100 101 0
c gate 102 -84 -101 0
-84 -102 0
-101 -102 0
84 101 102 0
c gate 103 -10 -23 0
-10 -103 0
-23 -103 0
10 23 103 0
c gate 104 -9 -22 0
-9 -104 0
-22 -104 0
9 22 104 0
c gate 105 -103 -104 0
-103 -105 0
-104 -105 0
103 104 105 0
c gate 106 -102 105 0
-102 -106 0
105 -106 0
102 -105 106 0
c gate 107 10 23 0
10 -107 0
23 -107 0
-10 -23 107 0
c gate 108 -75 -107 0
-75 -108 0
-107 -108 0
75 107 108 0
c gate 109 -106 108 0
-106 -109 0
108 -109 0
106 -108 109 0
c gate 110 -74 -109 0
-74 -110 0
-109 -110 0
74 109 110 0
c gate 111 -83 -110 0
-83 -111 0
-110 -111 0
83 110 111 0
c gate 112 -12 -25 0
-12 -112 0
-25 -112 0
12 25 112 0
c gate 113 -13 -26 0
-13 -113 0
-26 -113 0
13 26 113 0
c gate 114 -112 -113 0
-112 -114 0
-113 -114 0
112 113 114 0
c gate 115 -111 114 0
-111 -115 0
114 -115 0
111 -114 115 0
c gate 116 13 26 0
13 -116 0
26 -116 0
-13 -26 116 0
c gate 117 -66 -116 0
-66 -117 0
-116 -117 0
66 116 117 0
c gate 118 -115 117 0
-115 -118 0
117 -118 0
115 -117 118 0
c gate 119 -65 -118 0
-65 -119 0
-118 -119 0
65 118 119 0
c gate 120 -82 119 0
-82 -120 0
119 -120 0
82 -119 120 0
c gate 121 -74 -103 0
-74 -121 0
-103 -121 0
74 103 121 0
c gate 122 -75 -121 0
-75 -122 0
-121 -122 0
75 121 122 0
c gate 123 -112 -122 0
-112 -123 0
-122 -123 0
112 122 123 0
c gate 124 -83 -116 0
-83 -124 0
-116 -124 0
83 116 124 0
c gate 125 -123 124 0
-123 -125 0
124 -125 0
123 -124 125 0
c gate 126 67 -113 0
67 -126 0
-113 -126 0
-67 113 126 0
c gate 127 -125 126 0
-125 -127 0
126 -127 0
125 -126 127 0
c gate 128 -66 -127 0
-66 -128 0
-127 -128 0
66 127 128 0
c gate 129 -120 -128 0
-120 -129 0
-128 -129 0
120 128 129 0
c gate 130 119 128 0
119 -130 0
128 -130 0
-119 -128 130 0
c gate 131 111 -112 0
111 -131 0
-112 -131 0
-111 112 131 0
c gate 132 -109 -131 0
-109 -132 0
-131 -132 0
109 131 132 0
c gate 133 -122 -132 0
-122 -133 0
-132 -133 0
122 132 133 0
c gate 134 -31 -32 0
-31 -134 0
-32 -134 0
31 32 134 0
c gate 135 -54 76 0
-54 -135 0
76 -135 0
54 -76 135 0
c gate 136 -134 135 0
-134 -136 0
135 -136 0
134 -135 136 0
c gate 137 -57 -136 0
-57 -137 0
-136 -137 0
57 136 137 0
c gate 138 -84 -104 0
-84 -138 0
-104 -138 0
84 104 138 0
c gate 139 -51 -138 0
-51 -139 0
-138 -139 0
51 138 139 0
c gate 140 -98 -138 0
-98 -140 0
-138 -140 0
98 138 140 0
c gate 141 -101 -140 0
-101 -141 0
-140 -141 0
101 140 141 0
c gate 142 1 40 0
1 -142 0
40 -142 0
-1 -40 142 0
c gate 143 -4 -17 0
-4 -143 0
-17 -143 0
4 17 143 0
c gate 144 80 143 0
80 -144 0
143 -144 0
-80 -143 144 0
c gate 145 -103 -107 0
-103 -145 0
-107 -145 0
103 107 145 0
c gate 146 104 145 0
104 -146 0
145 -146 0
-104 -145 146 0
c gate 147 -144 -146 0
-144 -147 0
-146 -147 0
144 146 147 0
c gate 148 -142 147 0
-142 -148 0
147 -148 0
142 -147 148 0
c gate 149 -141 148 0
-141 -149 0
148 -149 0
141 -148 149 0
c gate 150 -139 149 0
-139 -150 0
149 -150 0
139 -149 150 0
c gate 151 -137 150 0
-137 -151 0
150 -151 0
137 -150 151 0
c gate 152 -133 151 0
-133 -152 0
151 -152 0
133 -151 152 0
c gate 153 -130 152 0
-130 -153 0
152 -153 0
130 -152 153 0
c gate 154 -129 153 0
-129 -154 0
153 -154 0
129 -153 154 0
c gate 155 -79 154 0
-79 -155 0
154 -155 0
79 -154 155 0
c gate 156 -72 155 0
-72 -156 0
155 -156 0
72 -155 156 0
c PO
-156 0
